DIMACS_lns/graph-1000-21.col
p edge 1000 1842
e 3 428
e 3 659
e 3 655
e 3 605
e 4 365
e 4 486
e 4 496
e 4 777
e 4 41
e 4 705
e 4 36
e 7 70
e 7 398
e 7 826
e 7 722
e 9 648
e 9 910
e 9 734
e 9 430
e 10 761
e 10 377
e 10 675
e 10 86
e 11 239
e 11 219
e 11 363
e 12 365
e 12 547
e 12 937
e 13 900
e 13 675
e 13 176
e 13 366
e 13 567
e 13 884
e 14 704
e 14 88
e 14 593
e 14 257
e 15 823
e 15 987
e 15 82
e 15 869
e 15 692
e 17 24
e 17 977
e 17 884
e 18 454
e 18 157
e 18 190
e 18 26
e 20 402
e 20 504
e 20 849
e 20 520
e 20 363
e 20 748
e 20 806
e 20 235
e 21 603
e 21 513
e 21 937
e 21 757
e 22 201
e 22 738
e 22 545
e 22 670
e 22 86
e 22 161
e 23 714
e 23 109
e 23 162
e 23 896
e 23 874
e 23 862
e 23 905
e 23 636
e 24 426
e 24 389
e 24 330
e 24 769
e 24 117
e 24 919
e 25 274
e 25 650
e 25 887
e 25 496
e 25 719
e 25 824
e 26 445
e 26 336
e 26 486
e 27 555
e 27 820
e 27 156
e 27 324
e 27 470
e 27 242
e 27 355
e 31 583
e 31 330
e 31 963
e 31 337
e 32 212
e 32 758
e 32 899
e 32 422
e 33 672
e 33 680
e 33 937
e 34 564
e 34 997
e 34 719
e 35 88
e 35 412
e 35 603
e 35 422
e 36 137
e 36 38
e 37 948
e 37 663
e 37 182
e 38 880
e 38 816
e 38 407
e 38 836
e 38 208
e 39 892
e 39 745
e 39 759
e 39 255
e 39 842
e 40 911
e 40 282
e 40 679
e 40 691
e 41 595
e 41 80
e 41 736
e 42 143
e 42 445
e 42 158
e 42 805
e 42 686
e 43 327
e 43 986
e 43 502
e 43 489
e 46 393
e 46 107
e 46 663
e 46 893
e 46 358
e 47 141
e 47 791
e 47 941
e 47 357
e 48 502
e 48 83
e 48 291
e 48 375
e 48 412
e 49 987
e 49 621
e 49 446
e 49 648
e 50 621
e 50 848
e 50 729
e 50 505
e 50 211
e 50 994
e 51 941
e 51 881
e 51 566
e 51 521
e 51 963
e 51 480
e 53 228
e 53 381
e 53 422
e 53 583
e 53 387
e 53 379
e 53 528
e 53 82
e 53 460
e 54 986
e 54 990
e 54 822
e 54 201
e 56 188
e 56 166
e 56 569
e 58 352
e 58 868
e 58 521
e 59 810
e 59 762
e 59 999
e 59 212
e 59 698
e 61 762
e 61 95
e 61 262
e 61 406
e 61 118
e 61 255
e 61 71
e 62 662
e 62 658
e 62 315
e 63 728
e 63 713
e 63 271
e 63 734
e 63 121
e 63 585
e 65 866
e 65 108
e 65 635
e 65 267
e 65 236
e 65 340
e 66 479
e 66 395
e 66 710
e 66 947
e 67 114
e 67 745
e 67 882
e 68 102
e 68 244
e 68 326
e 68 620
e 69 337
e 69 735
e 69 141
e 69 534
e 69 309
e 70 535
e 70 387
e 71 917
e 71 971
e 71 593
e 71 986
e 72 465
e 72 102
e 72 910
e 73 364
e 73 491
e 73 662
e 73 986
e 74 441
e 74 220
e 74 730
e 74 716
e 74 653
e 74 792
e 75 645
e 75 130
e 75 112
e 76 607
e 76 919
e 76 151
e 76 682
e 76 434
e 77 370
e 77 268
e 77 603
e 77 527
e 77 503
e 78 179
e 78 499
e 78 843
e 79 176
e 79 233
e 79 663
e 80 209
e 80 298
e 80 88
e 80 509
e 81 583
e 81 857
e 81 331
e 81 724
e 81 922
e 82 386
e 82 227
e 82 692
e 82 575
e 83 323
e 83 445
e 83 790
e 83 302
e 83 645
e 83 845
e 84 129
e 84 684
e 84 512
e 85 257
e 85 384
e 85 358
e 85 945
e 86 1000
e 86 803
e 86 435
e 88 551
e 88 984
e 88 948
e 88 163
e 89 977
e 89 186
e 89 971
e 89 578
e 89 315
e 89 426
e 89 744
e 90 551
e 90 172
e 90 516
e 90 487
e 90 800
e 90 896
e 90 590
e 90 497
e 90 862
e 92 940
e 92 743
e 92 572
e 92 237
e 92 478
e 92 130
e 92 575
e 92 523
e 93 634
e 93 892
e 93 397
e 93 617
e 93 782
e 94 252
e 94 707
e 94 110
e 94 884
e 94 325
e 94 196
e 95 448
e 95 809
e 96 382
e 96 187
e 96 712
e 96 241
e 96 323
e 96 262
e 98 977
e 98 939
e 98 559
e 99 527
e 99 898
e 99 687
e 99 757
e 100 745
e 100 644
e 100 499
e 101 845
e 101 409
e 101 142
e 102 600
e 102 461
e 102 219
e 102 435
e 102 578
e 103 937
e 103 763
e 103 395
e 103 825
e 103 251
e 104 381
e 104 478
e 104 297
e 104 911
e 104 339
e 104 292
e 104 816
e 104 401
e 104 150
e 106 402
e 106 948
e 106 279
e 106 696
e 106 894
e 107 248
e 107 718
e 107 567
e 108 224
e 108 138
e 108 987
e 108 325
e 109 289
e 109 332
e 109 137
e 109 584
e 110 635
e 110 735
e 110 994
e 111 368
e 111 943
e 111 868
e 111 817
e 112 507
e 112 721
e 112 234
e 112 451
e 112 320
e 113 303
e 113 735
e 113 835
e 114 932
e 114 635
e 114 603
e 114 385
e 117 923
e 117 220
e 118 996
e 118 847
e 119 239
e 119 555
e 119 804
e 121 807
e 121 409
e 121 824
e 122 636
e 122 938
e 122 818
e 122 705
e 123 522
e 123 379
e 123 558
e 123 507
e 123 258
e 123 450
e 123 237
e 123 457
e 127 516
e 127 216
e 127 132
e 127 577
e 127 991
e 128 959
e 128 455
e 128 944
e 128 950
e 128 649
e 128 229
e 128 145
e 128 204
e 129 232
e 129 302
e 129 761
e 130 830
e 131 150
e 131 395
e 131 712
e 132 354
e 132 283
e 132 527
e 132 729
e 133 313
e 133 942
e 133 830
e 134 746
e 134 949
e 134 334
e 136 577
e 136 410
e 136 477
e 136 924
e 136 745
e 137 182
e 137 555
e 138 819
e 138 758
e 138 879
e 138 495
e 138 225
e 139 861
e 139 484
e 139 687
e 140 151
e 140 619
e 140 995
e 141 366
e 141 858
e 141 412
e 141 223
e 141 290
e 141 151
e 142 388
e 142 181
e 143 917
e 143 930
e 143 724
e 143 367
e 144 836
e 144 253
e 144 727
e 144 686
e 144 557
e 144 421
e 145 605
e 145 629
e 145 592
e 146 831
e 146 278
e 146 552
e 146 382
e 147 738
e 147 312
e 147 888
e 147 919
e 148 185
e 148 886
e 148 164
e 148 211
e 148 780
e 148 643
e 149 746
e 149 298
e 149 367
e 149 516
e 150 208
e 150 692
e 150 858
e 150 831
e 151 876
e 151 596
e 152 544
e 152 768
e 152 866
e 153 161
e 153 912
e 153 712
e 153 765
e 153 439
e 154 827
e 154 987
e 154 857
e 154 467
e 154 302
e 154 657
e 154 226
e 154 412
e 155 556
e 155 986
e 155 223
e 156 846
e 156 211
e 157 868
e 157 478
e 157 805
e 158 166
e 158 854
e 158 676
e 158 227
e 158 190
e 158 715
e 159 565
e 159 629
e 159 388
e 160 559
e 160 848
e 160 334
e 160 728
e 161 862
e 161 729
e 161 187
e 161 537
e 162 493
e 162 874
e 162 569
e 162 642
e 163 996
e 163 572
e 164 653
e 164 596
e 166 563
e 168 877
e 168 880
e 168 770
e 168 655
e 170 570
e 170 185
e 170 454
e 171 544
e 171 699
e 171 191
e 172 587
e 172 809
e 172 708
e 172 713
e 172 938
e 174 663
e 174 612
e 174 658
e 176 999
e 176 846
e 177 252
e 177 400
e 177 374
e 177 440
e 177 202
e 179 415
e 179 440
e 179 293
e 180 729
e 180 734
e 180 400
e 180 389
e 180 923
e 180 861
e 181 472
e 181 572
e 182 693
e 184 503
e 184 487
e 184 394
e 184 248
e 184 818
e 184 691
e 184 320
e 185 315
e 185 757
e 185 942
e 185 704
e 185 288
e 186 982
e 186 712
e 186 246
e 187 207
e 187 215
e 187 541
e 188 569
e 188 751
e 190 805
e 191 690
e 191 842
e 191 400
e 192 681
e 192 936
e 192 593
e 193 279
e 193 425
e 193 493
e 193 339
e 193 592
e 193 366
e 194 808
e 194 728
e 194 795
e 194 817
e 194 878
e 196 612
e 196 681
e 196 927
e 197 491
e 197 282
e 197 520
e 197 320
e 199 689
e 199 336
e 199 346
e 199 442
e 199 864
e 199 216
e 201 454
e 201 725
e 201 710
e 202 800
e 202 340
e 202 308
e 202 809
e 203 388
e 203 605
e 203 652
e 203 297
e 203 656
e 203 378
e 204 760
e 204 390
e 205 785
e 205 907
e 205 212
e 205 332
e 206 856
e 206 237
e 206 297
e 207 496
e 207 370
e 208 313
e 209 276
e 209 381
e 209 943
e 209 941
e 210 282
e 210 299
e 210 550
e 211 564
e 211 651
e 212 715
e 212 440
e 212 714
e 212 540
e 215 563
e 215 279
e 215 992
e 216 333
e 216 493
e 216 893
e 216 728
e 216 582
e 219 990
e 219 670
e 220 547
e 223 941
e 223 692
e 224 698
e 224 689
e 224 347
e 225 898
e 225 273
e 225 947
e 225 461
e 225 771
e 226 494
e 226 298
e 226 256
e 226 284
e 227 848
e 227 552
e 227 655
e 227 728
e 227 829
e 227 595
e 227 244
e 227 503
e 228 281
e 228 667
e 228 672
e 229 680
e 229 342
e 232 320
e 232 567
e 232 893
e 232 812
e 233 841
e 233 261
e 233 315
e 233 826
e 233 656
e 233 508
e 234 401
e 234 508
e 235 621
e 235 720
e 236 374
e 236 751
e 236 607
e 236 899
e 236 619
e 236 376
e 237 346
e 237 508
e 237 611
e 239 868
e 239 355
e 239 554
e 241 733
e 241 421
e 242 798
e 242 849
e 242 494
e 244 712
e 245 676
e 245 718
e 245 675
e 245 265
e 245 761
e 246 939
e 246 384
e 246 928
e 246 416
e 248 898
e 248 712
e 250 739
e 250 363
e 250 691
e 250 964
e 250 497
e 251 421
e 251 718
e 251 333
e 251 423
e 251 836
e 251 525
e 251 755
e 252 274
e 252 258
e 252 416
e 252 591
e 253 313
e 253 945
e 253 881
e 253 284
e 254 599
e 254 992
e 254 600
e 254 573
e 254 466
e 254 828
e 254 502
e 254 339
e 255 658
e 255 831
e 256 593
e 256 394
e 257 880
e 258 752
e 258 603
e 258 704
e 261 880
e 261 449
e 261 728
e 261 537
e 262 806
e 265 492
e 265 820
e 265 725
e 267 823
e 267 331
e 267 901
e 268 824
e 268 617
e 268 908
e 271 282
e 271 788
e 271 368
e 271 987
e 272 437
e 272 900
e 272 989
e 272 940
e 273 855
e 273 896
e 273 387
e 273 760
e 274 662
e 274 636
e 275 910
e 275 955
e 275 806
e 275 311
e 276 564
e 276 375
e 276 903
e 276 956
e 276 843
e 276 775
e 276 635
e 278 789
e 278 608
e 278 991
e 278 910
e 278 569
e 278 649
e 278 530
e 279 560
e 279 788
e 279 746
e 279 568
e 279 448
e 280 771
e 280 846
e 280 342
e 281 379
e 281 449
e 282 930
e 283 738
e 283 715
e 283 790
e 284 920
e 284 812
e 284 799
e 284 368
e 288 516
e 288 530
e 288 492
e 288 340
e 288 805
e 288 928
e 289 448
e 289 543
e 290 357
e 290 780
e 290 535
e 290 803
e 290 687
e 291 496
e 291 447
e 291 581
e 292 920
e 292 809
e 292 412
e 292 718
e 292 626
e 292 387
e 293 634
e 293 822
e 293 428
e 293 943
e 293 330
e 293 817
e 293 755
e 293 390
e 293 573
e 293 499
e 295 734
e 295 368
e 295 869
e 295 693
e 296 851
e 296 959
e 296 670
e 297 718
e 297 559
e 297 426
e 297 990
e 297 583
e 298 652
e 298 615
e 298 549
e 299 814
e 299 877
e 300 565
e 300 448
e 300 707
e 300 379
e 301 908
e 301 455
e 301 499
e 302 965
e 302 819
e 302 550
e 302 909
e 303 839
e 303 363
e 308 806
e 308 415
e 309 941
e 309 616
e 309 749
e 309 535
e 310 939
e 310 820
e 310 560
e 311 675
e 311 731
e 311 455
e 312 544
e 312 809
e 313 800
e 313 468
e 313 654
e 315 935
e 315 686
e 318 964
e 318 537
e 318 354
e 320 819
e 320 640
e 320 699
e 320 323
e 321 446
e 321 976
e 321 866
e 323 348
e 323 477
e 323 889
e 323 544
e 324 719
e 324 569
e 324 729
e 325 919
e 325 509
e 325 417
e 326 684
e 326 585
e 326 417
e 327 437
e 327 748
e 327 923
e 327 467
e 327 805
e 328 726
e 328 963
e 328 709
e 330 730
e 330 785
e 330 660
e 330 792
e 330 888
e 331 615
e 331 775
e 331 882
e 332 383
e 332 333
e 332 457
e 332 450
e 334 759
e 336 607
e 336 878
e 336 812
e 336 590
e 336 731
e 337 424
e 337 935
e 338 591
e 338 814
e 338 564
e 339 435
e 339 681
e 339 469
e 340 416
e 340 385
e 340 757
e 341 985
e 341 866
e 341 951
e 342 491
e 342 938
e 342 357
e 343 513
e 343 578
e 343 470
e 344 608
e 344 809
e 344 430
e 344 551
e 346 966
e 346 377
e 346 348
e 346 505
e 347 850
e 347 674
e 347 843
e 347 470
e 348 565
e 348 535
e 348 912
e 348 857
e 351 947
e 351 358
e 351 661
e 351 419
e 352 410
e 352 358
e 352 509
e 352 407
e 354 976
e 355 662
e 357 400
e 357 655
e 357 460
e 358 628
e 358 876
e 362 906
e 362 545
e 362 485
e 363 460
e 364 613
e 364 555
e 364 560
e 365 598
e 365 428
e 365 635
e 366 422
e 366 880
e 366 373
e 366 872
e 366 612
e 367 712
e 367 927
e 367 818
e 367 535
e 367 744
e 368 460
e 368 682
e 370 567
e 370 720
e 370 880
e 373 644
e 373 789
e 374 877
e 375 965
e 375 935
e 375 837
e 375 984
e 375 820
e 375 543
e 375 908
e 375 809
e 376 462
e 376 621
e 376 942
e 377 898
e 377 997
e 378 854
e 378 649
e 378 463
e 379 391
e 380 396
e 380 575
e 380 462
e 380 734
e 381 540
e 381 472
e 382 440
e 383 661
e 383 634
e 383 520
e 383 855
e 384 906
e 384 565
e 384 782
e 385 645
e 386 757
e 386 601
e 386 636
e 386 931
e 387 688
e 387 987
e 387 860
e 388 933
e 389 839
e 389 847
e 389 600
e 390 980
e 391 979
e 391 894
e 391 841
e 391 755
e 391 509
e 391 513
e 393 938
e 393 916
e 393 406
e 394 485
e 394 817
e 395 922
e 396 661
e 396 467
e 396 677
e 397 826
e 397 987
e 397 604
e 397 785
e 397 775
e 398 992
e 398 561
e 400 739
e 400 636
e 400 409
e 400 407
e 401 852
e 401 915
e 401 705
e 401 707
e 402 439
e 406 738
e 406 561
e 406 892
e 406 595
e 407 698
e 407 512
e 407 487
e 408 615
e 408 897
e 408 451
e 409 939
e 409 824
e 410 817
e 412 897
e 412 879
e 412 843
e 415 865
e 415 561
e 415 654
e 415 847
e 416 500
e 417 628
e 419 716
e 419 873
e 419 427
e 419 995
e 421 577
e 421 567
e 421 679
e 422 875
e 422 837
e 423 497
e 423 867
e 424 612
e 424 776
e 424 889
e 424 919
e 424 798
e 425 479
e 425 599
e 426 848
e 426 667
e 427 828
e 427 525
e 428 530
e 428 817
e 428 736
e 429 688
e 429 661
e 429 923
e 429 433
e 429 671
e 430 648
e 430 915
e 433 704
e 433 536
e 434 818
e 434 444
e 434 781
e 435 955
e 435 889
e 437 587
e 437 620
e 437 862
e 437 557
e 437 808
e 439 845
e 439 606
e 439 949
e 439 751
e 440 525
e 440 757
e 441 923
e 441 622
e 441 711
e 442 816
e 442 980
e 444 585
e 444 896
e 444 948
e 444 875
e 444 907
e 445 640
e 445 988
e 445 991
e 445 775
e 446 497
e 446 979
e 447 702
e 447 940
e 447 708
e 447 584
e 447 819
e 448 494
e 448 620
e 449 553
e 449 817
e 449 762
e 449 567
e 450 894
e 450 513
e 451 889
e 451 826
e 451 788
e 451 949
e 452 872
e 452 729
e 452 979
e 454 945
e 454 723
e 454 640
e 455 900
e 456 818
e 456 608
e 456 999
e 456 911
e 456 792
e 457 823
e 457 774
e 460 808
e 460 911
e 460 923
e 461 803
e 462 654
e 462 659
e 463 553
e 463 941
e 463 611
e 463 846
e 463 710
e 465 868
e 465 528
e 465 791
e 466 739
e 466 896
e 466 824
e 467 940
e 468 834
e 468 857
e 468 866
e 468 680
e 468 829
e 468 782
e 469 507
e 469 758
e 469 642
e 470 937
e 470 486
e 470 980
e 471 549
e 471 823
e 471 674
e 471 849
e 472 819
e 472 985
e 472 478
e 472 915
e 472 996
e 474 563
e 474 575
e 474 626
e 474 630
e 477 776
e 477 808
e 477 643
e 479 722
e 479 643
e 479 587
e 479 965
e 479 714
e 479 996
e 479 991
e 480 539
e 480 1000
e 484 752
e 484 536
e 484 845
e 484 494
e 485 998
e 486 873
e 486 507
e 487 616
e 487 513
e 487 971
e 487 530
e 489 879
e 489 898
e 490 777
e 490 831
e 490 849
e 492 761
e 492 874
e 493 911
e 493 950
e 493 912
e 494 753
e 495 874
e 495 921
e 495 919
e 496 841
e 496 748
e 496 561
e 496 603
e 496 525
e 497 734
e 499 544
e 499 942
e 500 990
e 500 520
e 500 997
e 500 783
e 502 856
e 502 680
e 503 628
e 503 696
e 503 921
e 504 711
e 504 567
e 505 753
e 508 671
e 508 783
e 509 799
e 512 658
e 512 652
e 512 982
e 512 552
e 513 612
e 513 642
e 516 572
e 516 909
e 520 752
e 520 872
e 521 627
e 522 660
e 522 881
e 523 823
e 523 705
e 523 723
e 523 965
e 523 894
e 525 668
e 525 857
e 525 560
e 527 676
e 528 535
e 528 764
e 528 915
e 530 894
e 530 927
e 534 753
e 534 724
e 535 858
e 535 812
e 535 628
e 536 812
e 539 649
e 539 747
e 540 616
e 540 749
e 540 885
e 540 955
e 540 932
e 541 643
e 541 795
e 543 889
e 543 776
e 543 887
e 544 975
e 544 805
e 544 861
e 544 932
e 544 727
e 545 932
e 545 852
e 547 917
e 549 823
e 550 827
e 551 976
e 551 661
e 551 936
e 552 652
e 552 867
e 553 660
e 554 663
e 554 603
e 554 896
e 555 763
e 556 652
e 556 757
e 556 572
e 557 839
e 557 819
e 557 721
e 558 857
e 558 804
e 559 585
e 559 959
e 561 849
e 565 733
e 565 735
e 566 615
e 566 612
e 566 936
e 567 579
e 567 601
e 567 966
e 568 642
e 568 757
e 568 790
e 569 882
e 569 774
e 569 699
e 570 829
e 570 997
e 572 769
e 572 708
e 573 944
e 573 751
e 575 795
e 577 810
e 578 579
e 578 799
e 579 774
e 579 738
e 579 760
e 580 880
e 580 752
e 580 716
e 581 982
e 581 864
e 582 640
e 582 955
e 582 668
e 582 593
e 583 847
e 583 936
e 583 990
e 583 658
e 584 586
e 584 843
e 585 930
e 585 684
e 585 850
e 586 604
e 586 621
e 587 845
e 590 674
e 590 768
e 591 982
e 591 872
e 591 598
e 591 789
e 592 595
e 592 792
e 592 781
e 595 984
e 596 927
e 598 668
e 598 688
e 598 812
e 599 603
e 599 912
e 599 744
e 600 780
e 601 816
e 601 933
e 603 777
e 604 635
e 604 835
e 604 749
e 604 950
e 605 627
e 605 829
e 606 863
e 606 679
e 606 650
e 607 764
e 607 744
e 607 662
e 608 842
e 611 620
e 612 651
e 613 662
e 613 690
e 613 765
e 615 656
e 615 730
e 615 906
e 615 916
e 615 707
e 616 830
e 617 739
e 619 863
e 620 950
e 620 823
e 620 721
e 620 764
e 622 726
e 622 863
e 622 916
e 626 985
e 627 643
e 627 939
e 627 861
e 628 738
e 629 839
e 629 945
e 629 924
e 630 998
e 630 867
e 635 711
e 640 975
e 640 855
e 640 923
e 642 924
e 643 968
e 643 735
e 643 873
e 644 923
e 644 952
e 644 868
e 647 774
e 647 729
e 647 654
e 648 834
e 648 884
e 648 653
e 648 748
e 649 746
e 649 709
e 649 889
e 649 836
e 649 917
e 650 894
e 650 689
e 651 851
e 652 924
e 652 804
e 652 825
e 653 707
e 653 812
e 653 943
e 654 944
e 655 790
e 656 829
e 657 944
e 657 672
e 658 964
e 658 788
e 658 713
e 659 720
e 660 713
e 660 890
e 661 986
e 662 1000
e 663 736
e 667 869
e 667 879
e 667 890
e 669 887
e 669 810
e 669 807
e 669 791
e 670 890
e 670 780
e 671 749
e 671 878
e 672 911
e 674 785
e 677 985
e 677 682
e 679 806
e 680 726
e 681 795
e 681 935
e 682 809
e 682 907
e 683 837
e 683 927
e 683 790
e 683 972
e 684 990
e 684 710
e 684 769
e 686 747
e 686 921
e 687 804
e 687 736
e 687 733
e 687 866
e 687 713
e 688 818
e 690 865
e 691 947
e 691 771
e 692 750
e 692 865
e 693 878
e 693 892
e 693 880
e 696 866
e 696 899
e 696 807
e 699 722
e 702 865
e 702 991
e 704 884
e 705 941
e 705 775
e 709 782
e 709 809
e 710 935
e 712 905
e 712 951
e 714 775
e 715 947
e 715 886
e 716 719
e 716 800
e 716 763
e 716 931
e 719 812
e 721 968
e 721 972
e 723 800
e 723 869
e 725 876
e 725 903
e 726 937
e 727 803
e 729 745
e 731 782
e 733 892
e 733 826
e 734 847
e 735 800
e 736 850
e 738 839
e 743 827
e 743 909
e 744 839
e 746 861
e 746 799
e 747 888
e 747 808
e 748 845
e 748 860
e 749 781
e 750 890
e 750 760
e 750 770
e 750 988
e 751 901
e 753 992
e 755 775
e 758 916
e 758 906
e 758 943
e 759 971
e 759 903
e 761 976
e 761 789
e 761 989
e 763 774
e 764 851
e 765 809
e 768 864
e 770 825
e 772 880
e 772 783
e 772 893
e 774 851
e 780 830
e 781 806
e 782 814
e 785 994
e 785 887
e 789 835
e 789 893
e 791 862
e 791 996
e 795 885
e 798 897
e 799 897
e 803 836
e 804 898
e 804 989
e 805 835
e 807 885
e 812 896
e 814 875
e 816 995
e 817 920
e 819 959
e 822 823
e 823 959
e 824 881
e 825 868
e 825 910
e 825 907
e 826 998
e 826 922
e 827 917
e 828 949
e 828 857
e 829 875
e 831 984
e 834 908
e 836 886
e 837 988
e 841 940
e 841 937
e 843 966
e 845 851
e 848 928
e 850 930
e 851 909
e 851 879
e 852 989
e 852 951
e 854 872
e 855 950
e 856 990
e 860 901
e 863 990
e 865 991
e 865 881
e 867 882
e 874 947
e 875 912
e 878 965
e 880 956
e 882 888
e 887 937
e 890 896
e 890 992
e 892 933
e 893 933
e 896 971
e 899 995
e 905 909
e 908 986
e 908 949
e 909 944
e 912 940
e 912 915
e 915 986
e 919 989
e 921 994
e 922 995
e 923 952
e 923 936
e 928 943
e 930 964
e 931 994
e 935 972
e 936 987
e 938 968
e 941 991
e 945 980
e 948 989
e 949 976
e 952 998
e 956 997
e 975 988
