txt_Ins/graph-1000-21.txt
n 1000
e 2 427
e 2 658
e 2 654
e 2 604
e 3 364
e 3 485
e 3 495
e 3 776
e 3 40
e 3 704
e 3 35
e 6 69
e 6 397
e 6 825
e 6 721
e 8 647
e 8 909
e 8 733
e 8 429
e 9 760
e 9 376
e 9 674
e 9 85
e 10 238
e 10 218
e 10 362
e 11 364
e 11 546
e 11 936
e 12 899
e 12 674
e 12 175
e 12 365
e 12 566
e 12 883
e 13 703
e 13 87
e 13 592
e 13 256
e 14 822
e 14 986
e 14 81
e 14 868
e 14 691
e 16 23
e 16 976
e 16 883
e 17 453
e 17 156
e 17 189
e 17 25
e 19 401
e 19 503
e 19 848
e 19 519
e 19 362
e 19 747
e 19 805
e 19 234
e 20 602
e 20 512
e 20 936
e 20 756
e 21 200
e 21 737
e 21 544
e 21 669
e 21 85
e 21 160
e 22 713
e 22 108
e 22 161
e 22 895
e 22 873
e 22 861
e 22 904
e 22 635
e 23 425
e 23 388
e 23 329
e 23 768
e 23 116
e 23 918
e 24 273
e 24 649
e 24 886
e 24 495
e 24 718
e 24 823
e 25 444
e 25 335
e 25 485
e 26 554
e 26 819
e 26 155
e 26 323
e 26 469
e 26 241
e 26 354
e 30 582
e 30 329
e 30 962
e 30 336
e 31 211
e 31 757
e 31 898
e 31 421
e 32 671
e 32 679
e 32 936
e 33 563
e 33 996
e 33 718
e 34 87
e 34 411
e 34 602
e 34 421
e 35 136
e 35 37
e 36 947
e 36 662
e 36 181
e 37 879
e 37 815
e 37 406
e 37 835
e 37 207
e 38 891
e 38 744
e 38 758
e 38 254
e 38 841
e 39 910
e 39 281
e 39 678
e 39 690
e 40 594
e 40 79
e 40 735
e 41 142
e 41 444
e 41 157
e 41 804
e 41 685
e 42 326
e 42 985
e 42 501
e 42 488
e 45 392
e 45 106
e 45 662
e 45 892
e 45 357
e 46 140
e 46 790
e 46 940
e 46 356
e 47 501
e 47 82
e 47 290
e 47 374
e 47 411
e 48 986
e 48 620
e 48 445
e 48 647
e 49 620
e 49 847
e 49 728
e 49 504
e 49 210
e 49 993
e 50 940
e 50 880
e 50 565
e 50 520
e 50 962
e 50 479
e 52 227
e 52 380
e 52 421
e 52 582
e 52 386
e 52 378
e 52 527
e 52 81
e 52 459
e 53 985
e 53 989
e 53 821
e 53 200
e 55 187
e 55 165
e 55 568
e 57 351
e 57 867
e 57 520
e 58 809
e 58 761
e 58 998
e 58 211
e 58 697
e 60 761
e 60 94
e 60 261
e 60 405
e 60 117
e 60 254
e 60 70
e 61 661
e 61 657
e 61 314
e 62 727
e 62 712
e 62 270
e 62 733
e 62 120
e 62 584
e 64 865
e 64 107
e 64 634
e 64 266
e 64 235
e 64 339
e 65 478
e 65 394
e 65 709
e 65 946
e 66 113
e 66 744
e 66 881
e 67 101
e 67 243
e 67 325
e 67 619
e 68 336
e 68 734
e 68 140
e 68 533
e 68 308
e 69 534
e 69 386
e 70 916
e 70 970
e 70 592
e 70 985
e 71 464
e 71 101
e 71 909
e 72 363
e 72 490
e 72 661
e 72 985
e 73 440
e 73 219
e 73 729
e 73 715
e 73 652
e 73 791
e 74 644
e 74 129
e 74 111
e 75 606
e 75 918
e 75 150
e 75 681
e 75 433
e 76 369
e 76 267
e 76 602
e 76 526
e 76 502
e 77 178
e 77 498
e 77 842
e 78 175
e 78 232
e 78 662
e 79 208
e 79 297
e 79 87
e 79 508
e 80 582
e 80 856
e 80 330
e 80 723
e 80 921
e 81 385
e 81 226
e 81 691
e 81 574
e 82 322
e 82 444
e 82 789
e 82 301
e 82 644
e 82 844
e 83 128
e 83 683
e 83 511
e 84 256
e 84 383
e 84 357
e 84 944
e 85 999
e 85 802
e 85 434
e 87 550
e 87 983
e 87 947
e 87 162
e 88 976
e 88 185
e 88 970
e 88 577
e 88 314
e 88 425
e 88 743
e 89 550
e 89 171
e 89 515
e 89 486
e 89 799
e 89 895
e 89 589
e 89 496
e 89 861
e 91 939
e 91 742
e 91 571
e 91 236
e 91 477
e 91 129
e 91 574
e 91 522
e 92 633
e 92 891
e 92 396
e 92 616
e 92 781
e 93 251
e 93 706
e 93 109
e 93 883
e 93 324
e 93 195
e 94 447
e 94 808
e 95 381
e 95 186
e 95 711
e 95 240
e 95 322
e 95 261
e 97 976
e 97 938
e 97 558
e 98 526
e 98 897
e 98 686
e 98 756
e 99 744
e 99 643
e 99 498
e 100 844
e 100 408
e 100 141
e 101 599
e 101 460
e 101 218
e 101 434
e 101 577
e 102 936
e 102 762
e 102 394
e 102 824
e 102 250
e 103 380
e 103 477
e 103 296
e 103 910
e 103 338
e 103 291
e 103 815
e 103 400
e 103 149
e 105 401
e 105 947
e 105 278
e 105 695
e 105 893
e 106 247
e 106 717
e 106 566
e 107 223
e 107 137
e 107 986
e 107 324
e 108 288
e 108 331
e 108 136
e 108 583
e 109 634
e 109 734
e 109 993
e 110 367
e 110 942
e 110 867
e 110 816
e 111 506
e 111 720
e 111 233
e 111 450
e 111 319
e 112 302
e 112 734
e 112 834
e 113 931
e 113 634
e 113 602
e 113 384
e 116 922
e 116 219
e 117 995
e 117 846
e 118 238
e 118 554
e 118 803
e 120 806
e 120 408
e 120 823
e 121 635
e 121 937
e 121 817
e 121 704
e 122 521
e 122 378
e 122 557
e 122 506
e 122 257
e 122 449
e 122 236
e 122 456
e 126 515
e 126 215
e 126 131
e 126 576
e 126 990
e 127 958
e 127 454
e 127 943
e 127 949
e 127 648
e 127 228
e 127 144
e 127 203
e 128 231
e 128 301
e 128 760
e 129 829
e 130 149
e 130 394
e 130 711
e 131 353
e 131 282
e 131 526
e 131 728
e 132 312
e 132 941
e 132 829
e 133 745
e 133 948
e 133 333
e 135 576
e 135 409
e 135 476
e 135 923
e 135 744
e 136 181
e 136 554
e 137 818
e 137 757
e 137 878
e 137 494
e 137 224
e 138 860
e 138 483
e 138 686
e 139 150
e 139 618
e 139 994
e 140 365
e 140 857
e 140 411
e 140 222
e 140 289
e 140 150
e 141 387
e 141 180
e 142 916
e 142 929
e 142 723
e 142 366
e 143 835
e 143 252
e 143 726
e 143 685
e 143 556
e 143 420
e 144 604
e 144 628
e 144 591
e 145 830
e 145 277
e 145 551
e 145 381
e 146 737
e 146 311
e 146 887
e 146 918
e 147 184
e 147 885
e 147 163
e 147 210
e 147 779
e 147 642
e 148 745
e 148 297
e 148 366
e 148 515
e 149 207
e 149 691
e 149 857
e 149 830
e 150 875
e 150 595
e 151 543
e 151 767
e 151 865
e 152 160
e 152 911
e 152 711
e 152 764
e 152 438
e 153 826
e 153 986
e 153 856
e 153 466
e 153 301
e 153 656
e 153 225
e 153 411
e 154 555
e 154 985
e 154 222
e 155 845
e 155 210
e 156 867
e 156 477
e 156 804
e 157 165
e 157 853
e 157 675
e 157 226
e 157 189
e 157 714
e 158 564
e 158 628
e 158 387
e 159 558
e 159 847
e 159 333
e 159 727
e 160 861
e 160 728
e 160 186
e 160 536
e 161 492
e 161 873
e 161 568
e 161 641
e 162 995
e 162 571
e 163 652
e 163 595
e 165 562
e 167 876
e 167 879
e 167 769
e 167 654
e 169 569
e 169 184
e 169 453
e 170 543
e 170 698
e 170 190
e 171 586
e 171 808
e 171 707
e 171 712
e 171 937
e 173 662
e 173 611
e 173 657
e 175 998
e 175 845
e 176 251
e 176 399
e 176 373
e 176 439
e 176 201
e 178 414
e 178 439
e 178 292
e 179 728
e 179 733
e 179 399
e 179 388
e 179 922
e 179 860
e 180 471
e 180 571
e 181 692
e 183 502
e 183 486
e 183 393
e 183 247
e 183 817
e 183 690
e 183 319
e 184 314
e 184 756
e 184 941
e 184 703
e 184 287
e 185 981
e 185 711
e 185 245
e 186 206
e 186 214
e 186 540
e 187 568
e 187 750
e 189 804
e 190 689
e 190 841
e 190 399
e 191 680
e 191 935
e 191 592
e 192 278
e 192 424
e 192 492
e 192 338
e 192 591
e 192 365
e 193 807
e 193 727
e 193 794
e 193 816
e 193 877
e 195 611
e 195 680
e 195 926
e 196 490
e 196 281
e 196 519
e 196 319
e 198 688
e 198 335
e 198 345
e 198 441
e 198 863
e 198 215
e 200 453
e 200 724
e 200 709
e 201 799
e 201 339
e 201 307
e 201 808
e 202 387
e 202 604
e 202 651
e 202 296
e 202 655
e 202 377
e 203 759
e 203 389
e 204 784
e 204 906
e 204 211
e 204 331
e 205 855
e 205 236
e 205 296
e 206 495
e 206 369
e 207 312
e 208 275
e 208 380
e 208 942
e 208 940
e 209 281
e 209 298
e 209 549
e 210 563
e 210 650
e 211 714
e 211 439
e 211 713
e 211 539
e 214 562
e 214 278
e 214 991
e 215 332
e 215 492
e 215 892
e 215 727
e 215 581
e 218 989
e 218 669
e 219 546
e 222 940
e 222 691
e 223 697
e 223 688
e 223 346
e 224 897
e 224 272
e 224 946
e 224 460
e 224 770
e 225 493
e 225 297
e 225 255
e 225 283
e 226 847
e 226 551
e 226 654
e 226 727
e 226 828
e 226 594
e 226 243
e 226 502
e 227 280
e 227 666
e 227 671
e 228 679
e 228 341
e 231 319
e 231 566
e 231 892
e 231 811
e 232 840
e 232 260
e 232 314
e 232 825
e 232 655
e 232 507
e 233 400
e 233 507
e 234 620
e 234 719
e 235 373
e 235 750
e 235 606
e 235 898
e 235 618
e 235 375
e 236 345
e 236 507
e 236 610
e 238 867
e 238 354
e 238 553
e 240 732
e 240 420
e 241 797
e 241 848
e 241 493
e 243 711
e 244 675
e 244 717
e 244 674
e 244 264
e 244 760
e 245 938
e 245 383
e 245 927
e 245 415
e 247 897
e 247 711
e 249 738
e 249 362
e 249 690
e 249 963
e 249 496
e 250 420
e 250 717
e 250 332
e 250 422
e 250 835
e 250 524
e 250 754
e 251 273
e 251 257
e 251 415
e 251 590
e 252 312
e 252 944
e 252 880
e 252 283
e 253 598
e 253 991
e 253 599
e 253 572
e 253 465
e 253 827
e 253 501
e 253 338
e 254 657
e 254 830
e 255 592
e 255 393
e 256 879
e 257 751
e 257 602
e 257 703
e 260 879
e 260 448
e 260 727
e 260 536
e 261 805
e 264 491
e 264 819
e 264 724
e 266 822
e 266 330
e 266 900
e 267 823
e 267 616
e 267 907
e 270 281
e 270 787
e 270 367
e 270 986
e 271 436
e 271 899
e 271 988
e 271 939
e 272 854
e 272 895
e 272 386
e 272 759
e 273 661
e 273 635
e 274 909
e 274 954
e 274 805
e 274 310
e 275 563
e 275 374
e 275 902
e 275 955
e 275 842
e 275 774
e 275 634
e 277 788
e 277 607
e 277 990
e 277 909
e 277 568
e 277 648
e 277 529
e 278 559
e 278 787
e 278 745
e 278 567
e 278 447
e 279 770
e 279 845
e 279 341
e 280 378
e 280 448
e 281 929
e 282 737
e 282 714
e 282 789
e 283 919
e 283 811
e 283 798
e 283 367
e 287 515
e 287 529
e 287 491
e 287 339
e 287 804
e 287 927
e 288 447
e 288 542
e 289 356
e 289 779
e 289 534
e 289 802
e 289 686
e 290 495
e 290 446
e 290 580
e 291 919
e 291 808
e 291 411
e 291 717
e 291 625
e 291 386
e 292 633
e 292 821
e 292 427
e 292 942
e 292 329
e 292 816
e 292 754
e 292 389
e 292 572
e 292 498
e 294 733
e 294 367
e 294 868
e 294 692
e 295 850
e 295 958
e 295 669
e 296 717
e 296 558
e 296 425
e 296 989
e 296 582
e 297 651
e 297 614
e 297 548
e 298 813
e 298 876
e 299 564
e 299 447
e 299 706
e 299 378
e 300 907
e 300 454
e 300 498
e 301 964
e 301 818
e 301 549
e 301 908
e 302 838
e 302 362
e 307 805
e 307 414
e 308 940
e 308 615
e 308 748
e 308 534
e 309 938
e 309 819
e 309 559
e 310 674
e 310 730
e 310 454
e 311 543
e 311 808
e 312 799
e 312 467
e 312 653
e 314 934
e 314 685
e 317 963
e 317 536
e 317 353
e 319 818
e 319 639
e 319 698
e 319 322
e 320 445
e 320 975
e 320 865
e 322 347
e 322 476
e 322 888
e 322 543
e 323 718
e 323 568
e 323 728
e 324 918
e 324 508
e 324 416
e 325 683
e 325 584
e 325 416
e 326 436
e 326 747
e 326 922
e 326 466
e 326 804
e 327 725
e 327 962
e 327 708
e 329 729
e 329 784
e 329 659
e 329 791
e 329 887
e 330 614
e 330 774
e 330 881
e 331 382
e 331 332
e 331 456
e 331 449
e 333 758
e 335 606
e 335 877
e 335 811
e 335 589
e 335 730
e 336 423
e 336 934
e 337 590
e 337 813
e 337 563
e 338 434
e 338 680
e 338 468
e 339 415
e 339 384
e 339 756
e 340 984
e 340 865
e 340 950
e 341 490
e 341 937
e 341 356
e 342 512
e 342 577
e 342 469
e 343 607
e 343 808
e 343 429
e 343 550
e 345 965
e 345 376
e 345 347
e 345 504
e 346 849
e 346 673
e 346 842
e 346 469
e 347 564
e 347 534
e 347 911
e 347 856
e 350 946
e 350 357
e 350 660
e 350 418
e 351 409
e 351 357
e 351 508
e 351 406
e 353 975
e 354 661
e 356 399
e 356 654
e 356 459
e 357 627
e 357 875
e 361 905
e 361 544
e 361 484
e 362 459
e 363 612
e 363 554
e 363 559
e 364 597
e 364 427
e 364 634
e 365 421
e 365 879
e 365 372
e 365 871
e 365 611
e 366 711
e 366 926
e 366 817
e 366 534
e 366 743
e 367 459
e 367 681
e 369 566
e 369 719
e 369 879
e 372 643
e 372 788
e 373 876
e 374 964
e 374 934
e 374 836
e 374 983
e 374 819
e 374 542
e 374 907
e 374 808
e 375 461
e 375 620
e 375 941
e 376 897
e 376 996
e 377 853
e 377 648
e 377 462
e 378 390
e 379 395
e 379 574
e 379 461
e 379 733
e 380 539
e 380 471
e 381 439
e 382 660
e 382 633
e 382 519
e 382 854
e 383 905
e 383 564
e 383 781
e 384 644
e 385 756
e 385 600
e 385 635
e 385 930
e 386 687
e 386 986
e 386 859
e 387 932
e 388 838
e 388 846
e 388 599
e 389 979
e 390 978
e 390 893
e 390 840
e 390 754
e 390 508
e 390 512
e 392 937
e 392 915
e 392 405
e 393 484
e 393 816
e 394 921
e 395 660
e 395 466
e 395 676
e 396 825
e 396 986
e 396 603
e 396 784
e 396 774
e 397 991
e 397 560
e 399 738
e 399 635
e 399 408
e 399 406
e 400 851
e 400 914
e 400 704
e 400 706
e 401 438
e 405 737
e 405 560
e 405 891
e 405 594
e 406 697
e 406 511
e 406 486
e 407 614
e 407 896
e 407 450
e 408 938
e 408 823
e 409 816
e 411 896
e 411 878
e 411 842
e 414 864
e 414 560
e 414 653
e 414 846
e 415 499
e 416 627
e 418 715
e 418 872
e 418 426
e 418 994
e 420 576
e 420 566
e 420 678
e 421 874
e 421 836
e 422 496
e 422 866
e 423 611
e 423 775
e 423 888
e 423 918
e 423 797
e 424 478
e 424 598
e 425 847
e 425 666
e 426 827
e 426 524
e 427 529
e 427 816
e 427 735
e 428 687
e 428 660
e 428 922
e 428 432
e 428 670
e 429 647
e 429 914
e 432 703
e 432 535
e 433 817
e 433 443
e 433 780
e 434 954
e 434 888
e 436 586
e 436 619
e 436 861
e 436 556
e 436 807
e 438 844
e 438 605
e 438 948
e 438 750
e 439 524
e 439 756
e 440 922
e 440 621
e 440 710
e 441 815
e 441 979
e 443 584
e 443 895
e 443 947
e 443 874
e 443 906
e 444 639
e 444 987
e 444 990
e 444 774
e 445 496
e 445 978
e 446 701
e 446 939
e 446 707
e 446 583
e 446 818
e 447 493
e 447 619
e 448 552
e 448 816
e 448 761
e 448 566
e 449 893
e 449 512
e 450 888
e 450 825
e 450 787
e 450 948
e 451 871
e 451 728
e 451 978
e 453 944
e 453 722
e 453 639
e 454 899
e 455 817
e 455 607
e 455 998
e 455 910
e 455 791
e 456 822
e 456 773
e 459 807
e 459 910
e 459 922
e 460 802
e 461 653
e 461 658
e 462 552
e 462 940
e 462 610
e 462 845
e 462 709
e 464 867
e 464 527
e 464 790
e 465 738
e 465 895
e 465 823
e 466 939
e 467 833
e 467 856
e 467 865
e 467 679
e 467 828
e 467 781
e 468 506
e 468 757
e 468 641
e 469 936
e 469 485
e 469 979
e 470 548
e 470 822
e 470 673
e 470 848
e 471 818
e 471 984
e 471 477
e 471 914
e 471 995
e 473 562
e 473 574
e 473 625
e 473 629
e 476 775
e 476 807
e 476 642
e 478 721
e 478 642
e 478 586
e 478 964
e 478 713
e 478 995
e 478 990
e 479 538
e 479 999
e 483 751
e 483 535
e 483 844
e 483 493
e 484 997
e 485 872
e 485 506
e 486 615
e 486 512
e 486 970
e 486 529
e 488 878
e 488 897
e 489 776
e 489 830
e 489 848
e 491 760
e 491 873
e 492 910
e 492 949
e 492 911
e 493 752
e 494 873
e 494 920
e 494 918
e 495 840
e 495 747
e 495 560
e 495 602
e 495 524
e 496 733
e 498 543
e 498 941
e 499 989
e 499 519
e 499 996
e 499 782
e 501 855
e 501 679
e 502 627
e 502 695
e 502 920
e 503 710
e 503 566
e 504 752
e 507 670
e 507 782
e 508 798
e 511 657
e 511 651
e 511 981
e 511 551
e 512 611
e 512 641
e 515 571
e 515 908
e 519 751
e 519 871
e 520 626
e 521 659
e 521 880
e 522 822
e 522 704
e 522 722
e 522 964
e 522 893
e 524 667
e 524 856
e 524 559
e 526 675
e 527 534
e 527 763
e 527 914
e 529 893
e 529 926
e 533 752
e 533 723
e 534 857
e 534 811
e 534 627
e 535 811
e 538 648
e 538 746
e 539 615
e 539 748
e 539 884
e 539 954
e 539 931
e 540 642
e 540 794
e 542 888
e 542 775
e 542 886
e 543 974
e 543 804
e 543 860
e 543 931
e 543 726
e 544 931
e 544 851
e 546 916
e 548 822
e 549 826
e 550 975
e 550 660
e 550 935
e 551 651
e 551 866
e 552 659
e 553 662
e 553 602
e 553 895
e 554 762
e 555 651
e 555 756
e 555 571
e 556 838
e 556 818
e 556 720
e 557 856
e 557 803
e 558 584
e 558 958
e 560 848
e 564 732
e 564 734
e 565 614
e 565 611
e 565 935
e 566 578
e 566 600
e 566 965
e 567 641
e 567 756
e 567 789
e 568 881
e 568 773
e 568 698
e 569 828
e 569 996
e 571 768
e 571 707
e 572 943
e 572 750
e 574 794
e 576 809
e 577 578
e 577 798
e 578 773
e 578 737
e 578 759
e 579 879
e 579 751
e 579 715
e 580 981
e 580 863
e 581 639
e 581 954
e 581 667
e 581 592
e 582 846
e 582 935
e 582 989
e 582 657
e 583 585
e 583 842
e 584 929
e 584 683
e 584 849
e 585 603
e 585 620
e 586 844
e 589 673
e 589 767
e 590 981
e 590 871
e 590 597
e 590 788
e 591 594
e 591 791
e 591 780
e 594 983
e 595 926
e 597 667
e 597 687
e 597 811
e 598 602
e 598 911
e 598 743
e 599 779
e 600 815
e 600 932
e 602 776
e 603 634
e 603 834
e 603 748
e 603 949
e 604 626
e 604 828
e 605 862
e 605 678
e 605 649
e 606 763
e 606 743
e 606 661
e 607 841
e 610 619
e 611 650
e 612 661
e 612 689
e 612 764
e 614 655
e 614 729
e 614 905
e 614 915
e 614 706
e 615 829
e 616 738
e 618 862
e 619 949
e 619 822
e 619 720
e 619 763
e 621 725
e 621 862
e 621 915
e 625 984
e 626 642
e 626 938
e 626 860
e 627 737
e 628 838
e 628 944
e 628 923
e 629 997
e 629 866
e 634 710
e 639 974
e 639 854
e 639 922
e 641 923
e 642 967
e 642 734
e 642 872
e 643 922
e 643 951
e 643 867
e 646 773
e 646 728
e 646 653
e 647 833
e 647 883
e 647 652
e 647 747
e 648 745
e 648 708
e 648 888
e 648 835
e 648 916
e 649 893
e 649 688
e 650 850
e 651 923
e 651 803
e 651 824
e 652 706
e 652 811
e 652 942
e 653 943
e 654 789
e 655 828
e 656 943
e 656 671
e 657 963
e 657 787
e 657 712
e 658 719
e 659 712
e 659 889
e 660 985
e 661 999
e 662 735
e 666 868
e 666 878
e 666 889
e 668 886
e 668 809
e 668 806
e 668 790
e 669 889
e 669 779
e 670 748
e 670 877
e 671 910
e 673 784
e 676 984
e 676 681
e 678 805
e 679 725
e 680 794
e 680 934
e 681 808
e 681 906
e 682 836
e 682 926
e 682 789
e 682 971
e 683 989
e 683 709
e 683 768
e 685 746
e 685 920
e 686 803
e 686 735
e 686 732
e 686 865
e 686 712
e 687 817
e 689 864
e 690 946
e 690 770
e 691 749
e 691 864
e 692 877
e 692 891
e 692 879
e 695 865
e 695 898
e 695 806
e 698 721
e 701 864
e 701 990
e 703 883
e 704 940
e 704 774
e 708 781
e 708 808
e 709 934
e 711 904
e 711 950
e 713 774
e 714 946
e 714 885
e 715 718
e 715 799
e 715 762
e 715 930
e 718 811
e 720 967
e 720 971
e 722 799
e 722 868
e 724 875
e 724 902
e 725 936
e 726 802
e 728 744
e 730 781
e 732 891
e 732 825
e 733 846
e 734 799
e 735 849
e 737 838
e 742 826
e 742 908
e 743 838
e 745 860
e 745 798
e 746 887
e 746 807
e 747 844
e 747 859
e 748 780
e 749 889
e 749 759
e 749 769
e 749 987
e 750 900
e 752 991
e 754 774
e 757 915
e 757 905
e 757 942
e 758 970
e 758 902
e 760 975
e 760 788
e 760 988
e 762 773
e 763 850
e 764 808
e 767 863
e 769 824
e 771 879
e 771 782
e 771 892
e 773 850
e 779 829
e 780 805
e 781 813
e 784 993
e 784 886
e 788 834
e 788 892
e 790 861
e 790 995
e 794 884
e 797 896
e 798 896
e 802 835
e 803 897
e 803 988
e 804 834
e 806 884
e 811 895
e 813 874
e 815 994
e 816 919
e 818 958
e 821 822
e 822 958
e 823 880
e 824 867
e 824 909
e 824 906
e 825 997
e 825 921
e 826 916
e 827 948
e 827 856
e 828 874
e 830 983
e 833 907
e 835 885
e 836 987
e 840 939
e 840 936
e 842 965
e 844 850
e 847 927
e 849 929
e 850 908
e 850 878
e 851 988
e 851 950
e 853 871
e 854 949
e 855 989
e 859 900
e 862 989
e 864 990
e 864 880
e 866 881
e 873 946
e 874 911
e 877 964
e 879 955
e 881 887
e 886 936
e 889 895
e 889 991
e 891 932
e 892 932
e 895 970
e 898 994
e 904 908
e 907 985
e 907 948
e 908 943
e 911 939
e 911 914
e 914 985
e 918 988
e 920 993
e 921 994
e 922 951
e 922 935
e 927 942
e 929 963
e 930 993
e 934 971
e 935 986
e 937 967
e 940 990
e 944 979
e 947 988
e 948 975
e 951 997
e 955 996
e 974 987
